80
54 80
59
54 59
54
54 59
54
54 59
54
54 59
59
54 59
54
53 54
54
53 54
53
53 54
53
48 53
48
47 48
47
44 47
44
41 44
41
41 44
41
41 44
44
41 44
44
44 47
44
44 47
44
44 46
46
44 46
46
46 47
46
44 46
44
41 44
41
41 44
44
44 46
44
44 46
44
44 45
45
45 46
46
46 47
47
47 48
48
48 50
48
47 48
48
48 50
48
47 48
48
48 50
48
48 50
50
48 50
50
50 52
50
50 52
52
52 53
52
52 53
53
52 53
53
52 53
52
52 53
52
52 53
52
51 52
51
50 51
51
51 52
51
50 51
50
50 51